# Solution for model JobShopModel
# Objective value = 120
y[0,0,3] 1
y[0,0,5] 0
y[0,0,6] 0
y[0,1,0] 0
y[0,1,2] 1
y[0,1,4] 0
y[0,2,2] 1
y[0,2,3] 0
y[0,2,6] 0
y[1,0,2] 0
y[1,0,3] 0
y[1,0,4] 1
y[1,1,1] 0
y[1,1,4] 1
y[1,1,6] 0
y[1,2,0] 0
y[1,2,1] 1
y[1,2,2] 0
y[2,0,2] 1
y[2,0,4] 0
y[2,0,6] 0
y[2,1,1] 0
y[2,1,4] 1
y[2,1,5] 0
y[2,2,0] 0
y[2,2,2] 1
y[2,2,5] 0
y[3,0,2] 0
y[3,0,5] 1
y[3,0,6] 0
y[3,1,0] 1
y[3,1,3] 0
y[3,1,4] 0
y[3,2,2] 0
y[3,2,3] 0
y[3,2,6] 1
y[4,0,1] 1
y[4,0,4] 0
y[4,0,5] 0
y[4,1,3] 0
y[4,1,4] 0
y[4,1,5] 1
y[4,2,2] 0
y[4,2,4] 0
y[4,2,6] 1
y[5,0,0] 0
y[5,0,4] 0
y[5,0,6] 1
y[5,1,0] 1
y[5,1,3] 0
y[5,1,5] 0
y[5,2,0] 1
y[5,2,5] 0
y[5,2,6] 0
y[6,0,2] 0
y[6,0,3] 1
y[6,0,4] 0
y[6,1,1] 0
y[6,1,2] 0
y[6,1,5] 1
y[6,2,0] 0
y[6,2,1] 1
y[6,2,5] 0
x[0,0,0,0] 0
x[0,0,0,1] 0
x[0,0,0,2] 1
x[0,0,1,0] 1
x[0,0,1,1] 1
x[0,0,1,2] 0
x[0,0,2,0] 0
x[0,0,2,1] 0
x[0,0,2,2] 0
x[0,0,3,0] 0
x[0,0,3,1] 1
x[0,0,3,2] 0
x[0,0,4,0] 0
x[0,0,4,1] 1
x[0,0,4,2] 0
x[0,0,5,0] 0
x[0,0,5,1] 1
x[0,0,5,2] 1
x[0,0,6,0] 1
x[0,0,6,1] 0
x[0,0,6,2] 0
x[0,1,0,0] 0
x[0,1,0,1] 0
x[0,1,0,2] 1
x[0,1,1,0] 1
x[0,1,1,1] 1
x[0,1,1,2] 1
x[0,1,2,0] 0
x[0,1,2,1] 0
x[0,1,2,2] 0
x[0,1,3,0] 0
x[0,1,3,1] 0
x[0,1,3,2] 1
x[0,1,4,0] 0
x[0,1,4,1] 0
x[0,1,4,2] 1
x[0,1,5,0] 1
x[0,1,5,1] 0
x[0,1,5,2] 1
x[0,1,6,0] 0
x[0,1,6,1] 1
x[0,1,6,2] 0
x[0,2,0,0] 0
x[0,2,0,1] 0
x[0,2,0,2] 0
x[0,2,1,0] 0
x[0,2,1,1] 0
x[0,2,1,2] 0
x[0,2,2,0] 0
x[0,2,2,1] 0
x[0,2,2,2] 0
x[0,2,3,0] 0
x[0,2,3,1] 0
x[0,2,3,2] 1
x[0,2,4,0] 0
x[0,2,4,1] 1
x[0,2,4,2] 0
x[0,2,5,0] 0
x[0,2,5,1] 0
x[0,2,5,2] 1
x[0,2,6,0] 0
x[0,2,6,1] 0
x[0,2,6,2] 0
x[1,0,0,0] 0
x[1,0,0,1] 0
x[1,0,0,2] 0
x[1,0,1,0] 0
x[1,0,1,1] 1
x[1,0,1,2] 0
x[1,0,2,0] 0
x[1,0,2,1] 0
x[1,0,2,2] 1
x[1,0,3,0] 0
x[1,0,3,1] 1
x[1,0,3,2] 1
x[1,0,4,0] 1
x[1,0,4,1] 1
x[1,0,4,2] 1
x[1,0,5,0] 1
x[1,0,5,1] 1
x[1,0,5,2] 0
x[1,0,6,0] 0
x[1,0,6,1] 0
x[1,0,6,2] 0
x[1,1,0,0] 0
x[1,1,0,1] 0
x[1,1,0,2] 0
x[1,1,1,0] 0
x[1,1,1,1] 0
x[1,1,1,2] 0
x[1,1,2,0] 0
x[1,1,2,1] 0
x[1,1,2,2] 0
x[1,1,3,0] 0
x[1,1,3,1] 0
x[1,1,3,2] 1
x[1,1,4,0] 0
x[1,1,4,1] 0
x[1,1,4,2] 0
x[1,1,5,0] 0
x[1,1,5,1] 0
x[1,1,5,2] 1
x[1,1,6,0] 0
x[1,1,6,1] 1
x[1,1,6,2] 0
x[1,2,0,0] 0
x[1,2,0,1] 0
x[1,2,0,2] 0
x[1,2,1,0] 1
x[1,2,1,1] 1
x[1,2,1,2] 0
x[1,2,2,0] 0
x[1,2,2,1] 0
x[1,2,2,2] 0
x[1,2,3,0] 1
x[1,2,3,1] 1
x[1,2,3,2] 1
x[1,2,4,0] 0
x[1,2,4,1] 0
x[1,2,4,2] 1
x[1,2,5,0] 0
x[1,2,5,1] 1
x[1,2,5,2] 0
x[1,2,6,0] 0
x[1,2,6,1] 1
x[1,2,6,2] 1
x[2,0,0,0] 0
x[2,0,0,1] 0
x[2,0,0,2] 0
x[2,0,1,0] 0
x[2,0,1,1] 0
x[2,0,1,2] 0
x[2,0,2,0] 0
x[2,0,2,1] 1
x[2,0,2,2] 1
x[2,0,3,0] 1
x[2,0,3,1] 1
x[2,0,3,2] 1
x[2,0,4,0] 1
x[2,0,4,1] 1
x[2,0,4,2] 0
x[2,0,5,0] 0
x[2,0,5,1] 0
x[2,0,5,2] 0
x[2,0,6,0] 1
x[2,0,6,1] 0
x[2,0,6,2] 0
x[2,1,0,0] 0
x[2,1,0,1] 0
x[2,1,0,2] 0
x[2,1,1,0] 0
x[2,1,1,1] 0
x[2,1,1,2] 0
x[2,1,2,0] 0
x[2,1,2,1] 0
x[2,1,2,2] 1
x[2,1,3,0] 0
x[2,1,3,1] 0
x[2,1,3,2] 0
x[2,1,4,0] 0
x[2,1,4,1] 0
x[2,1,4,2] 0
x[2,1,5,0] 0
x[2,1,5,1] 1
x[2,1,5,2] 0
x[2,1,6,0] 0
x[2,1,6,1] 1
x[2,1,6,2] 1
x[2,2,0,0] 0
x[2,2,0,1] 0
x[2,2,0,2] 0
x[2,2,1,0] 0
x[2,2,1,1] 0
x[2,2,1,2] 0
x[2,2,2,0] 0
x[2,2,2,1] 0
x[2,2,2,2] 0
x[2,2,3,0] 1
x[2,2,3,1] 1
x[2,2,3,2] 1
x[2,2,4,0] 0
x[2,2,4,1] 0
x[2,2,4,2] 0
x[2,2,5,0] 0
x[2,2,5,1] 0
x[2,2,5,2] 1
x[2,2,6,0] 1
x[2,2,6,1] 1
x[2,2,6,2] 1
x[3,0,0,0] 0
x[3,0,0,1] 0
x[3,0,0,2] 0
x[3,0,1,0] 0
x[3,0,1,1] 0
x[3,0,1,2] 0
x[3,0,2,0] 0
x[3,0,2,1] 0
x[3,0,2,2] 0
x[3,0,3,0] 0
x[3,0,3,1] 0
x[3,0,3,2] 0
x[3,0,4,0] 1
x[3,0,4,1] 0
x[3,0,4,2] 0
x[3,0,5,0] 0
x[3,0,5,1] 1
x[3,0,5,2] 1
x[3,0,6,0] 0
x[3,0,6,1] 1
x[3,0,6,2] 1
x[3,1,0,0] 0
x[3,1,0,1] 0
x[3,1,0,2] 0
x[3,1,1,0] 0
x[3,1,1,1] 0
x[3,1,1,2] 0
x[3,1,2,0] 0
x[3,1,2,1] 0
x[3,1,2,2] 0
x[3,1,3,0] 0
x[3,1,3,1] 0
x[3,1,3,2] 1
x[3,1,4,0] 1
x[3,1,4,1] 1
x[3,1,4,2] 0
x[3,1,5,0] 1
x[3,1,5,1] 0
x[3,1,5,2] 0
x[3,1,6,0] 1
x[3,1,6,1] 0
x[3,1,6,2] 0
x[3,2,0,0] 0
x[3,2,0,1] 0
x[3,2,0,2] 0
x[3,2,1,0] 0
x[3,2,1,1] 0
x[3,2,1,2] 0
x[3,2,2,0] 0
x[3,2,2,1] 0
x[3,2,2,2] 0
x[3,2,3,0] 1
x[3,2,3,1] 0
x[3,2,3,2] 0
x[3,2,4,0] 0
x[3,2,4,1] 0
x[3,2,4,2] 0
x[3,2,5,0] 0
x[3,2,5,1] 1
x[3,2,5,2] 0
x[3,2,6,0] 0
x[3,2,6,1] 0
x[3,2,6,2] 0
x[4,0,0,0] 0
x[4,0,0,1] 0
x[4,0,0,2] 0
x[4,0,1,0] 0
x[4,0,1,1] 0
x[4,0,1,2] 0
x[4,0,2,0] 0
x[4,0,2,1] 0
x[4,0,2,2] 0
x[4,0,3,0] 0
x[4,0,3,1] 0
x[4,0,3,2] 0
x[4,0,4,0] 0
x[4,0,4,1] 1
x[4,0,4,2] 0
x[4,0,5,0] 0
x[4,0,5,1] 1
x[4,0,5,2] 1
x[4,0,6,0] 0
x[4,0,6,1] 0
x[4,0,6,2] 1
x[4,1,0,0] 0
x[4,1,0,1] 0
x[4,1,0,2] 0
x[4,1,1,0] 0
x[4,1,1,1] 0
x[4,1,1,2] 0
x[4,1,2,0] 0
x[4,1,2,1] 0
x[4,1,2,2] 0
x[4,1,3,0] 0
x[4,1,3,1] 0
x[4,1,3,2] 0
x[4,1,4,0] 0
x[4,1,4,1] 0
x[4,1,4,2] 1
x[4,1,5,0] 1
x[4,1,5,1] 1
x[4,1,5,2] 0
x[4,1,6,0] 0
x[4,1,6,1] 1
x[4,1,6,2] 1
x[4,2,0,0] 0
x[4,2,0,1] 0
x[4,2,0,2] 0
x[4,2,1,0] 0
x[4,2,1,1] 0
x[4,2,1,2] 0
x[4,2,2,0] 0
x[4,2,2,1] 0
x[4,2,2,2] 0
x[4,2,3,0] 0
x[4,2,3,1] 0
x[4,2,3,2] 0
x[4,2,4,0] 1
x[4,2,4,1] 0
x[4,2,4,2] 0
x[4,2,5,0] 0
x[4,2,5,1] 0
x[4,2,5,2] 1
x[4,2,6,0] 0
x[4,2,6,1] 0
x[4,2,6,2] 0
x[5,0,0,0] 0
x[5,0,0,1] 0
x[5,0,0,2] 0
x[5,0,1,0] 0
x[5,0,1,1] 0
x[5,0,1,2] 0
x[5,0,2,0] 0
x[5,0,2,1] 0
x[5,0,2,2] 0
x[5,0,3,0] 0
x[5,0,3,1] 0
x[5,0,3,2] 0
x[5,0,4,0] 0
x[5,0,4,1] 0
x[5,0,4,2] 0
x[5,0,5,0] 0
x[5,0,5,1] 0
x[5,0,5,2] 1
x[5,0,6,0] 0
x[5,0,6,1] 0
x[5,0,6,2] 1
x[5,1,0,0] 0
x[5,1,0,1] 0
x[5,1,0,2] 0
x[5,1,1,0] 0
x[5,1,1,1] 0
x[5,1,1,2] 0
x[5,1,2,0] 0
x[5,1,2,1] 0
x[5,1,2,2] 0
x[5,1,3,0] 0
x[5,1,3,1] 0
x[5,1,3,2] 0
x[5,1,4,0] 0
x[5,1,4,1] 0
x[5,1,4,2] 0
x[5,1,5,0] 1
x[5,1,5,1] 0
x[5,1,5,2] 1
x[5,1,6,0] 0
x[5,1,6,1] 0
x[5,1,6,2] 1
x[5,2,0,0] 0
x[5,2,0,1] 0
x[5,2,0,2] 0
x[5,2,1,0] 0
x[5,2,1,1] 0
x[5,2,1,2] 0
x[5,2,2,0] 0
x[5,2,2,1] 0
x[5,2,2,2] 0
x[5,2,3,0] 0
x[5,2,3,1] 0
x[5,2,3,2] 0
x[5,2,4,0] 0
x[5,2,4,1] 0
x[5,2,4,2] 0
x[5,2,5,0] 0
x[5,2,5,1] 0
x[5,2,5,2] 0
x[5,2,6,0] 0
x[5,2,6,1] 0
x[5,2,6,2] 0
x[6,0,0,0] 0
x[6,0,0,1] 0
x[6,0,0,2] 0
x[6,0,1,0] 0
x[6,0,1,1] 0
x[6,0,1,2] 0
x[6,0,2,0] 0
x[6,0,2,1] 0
x[6,0,2,2] 0
x[6,0,3,0] 0
x[6,0,3,1] 0
x[6,0,3,2] 0
x[6,0,4,0] 0
x[6,0,4,1] 0
x[6,0,4,2] 0
x[6,0,5,0] 0
x[6,0,5,1] 0
x[6,0,5,2] 0
x[6,0,6,0] 0
x[6,0,6,1] 1
x[6,0,6,2] 0
x[6,1,0,0] 0
x[6,1,0,1] 0
x[6,1,0,2] 0
x[6,1,1,0] 0
x[6,1,1,1] 0
x[6,1,1,2] 0
x[6,1,2,0] 0
x[6,1,2,1] 0
x[6,1,2,2] 0
x[6,1,3,0] 0
x[6,1,3,1] 0
x[6,1,3,2] 0
x[6,1,4,0] 0
x[6,1,4,1] 0
x[6,1,4,2] 0
x[6,1,5,0] 0
x[6,1,5,1] 0
x[6,1,5,2] 0
x[6,1,6,0] 0
x[6,1,6,1] 0
x[6,1,6,2] 1
x[6,2,0,0] 0
x[6,2,0,1] 0
x[6,2,0,2] 0
x[6,2,1,0] 0
x[6,2,1,1] 0
x[6,2,1,2] 0
x[6,2,2,0] 0
x[6,2,2,1] 0
x[6,2,2,2] 0
x[6,2,3,0] 0
x[6,2,3,1] 0
x[6,2,3,2] 0
x[6,2,4,0] 0
x[6,2,4,1] 0
x[6,2,4,2] 0
x[6,2,5,0] 0
x[6,2,5,1] 0
x[6,2,5,2] 0
x[6,2,6,0] 0
x[6,2,6,1] 0
x[6,2,6,2] 0
s[0,0,3] 13
s[0,0,5] 0
s[0,0,6] 0
s[0,1,0] 0
s[0,1,2] 6.9999999999996021e+00
s[0,1,4] 0
s[0,2,2] 3
s[0,2,3] 0
s[0,2,6] 0
s[1,0,2] 0
s[1,0,3] 0
s[1,0,4] 8.9999999999999787e+00
s[1,1,1] 0
s[1,1,4] 0
s[1,1,6] 0
s[1,2,0] 0
s[1,2,1] 6.9999999999999787e+00
s[1,2,2] 0
s[2,0,2] 2.6000000000000057e+01
s[2,0,4] 0
s[2,0,6] 0
s[2,1,1] 0
s[2,1,4] 2.3000000000000057e+01
s[2,1,5] 0
s[2,2,0] 0
s[2,2,2] 1.6000000000000057e+01
s[2,2,5] 0
s[3,0,2] 0
s[3,0,5] 8
s[3,0,6] 0
s[3,1,0] 5.0000000000000036e+00
s[3,1,3] 0
s[3,1,4] 0
s[3,2,2] 0
s[3,2,3] 0
s[3,2,6] 2
s[4,0,1] 1.6999999999999979e+01
s[4,0,4] 0
s[4,0,5] 0
s[4,1,3] 0
s[4,1,4] 0
s[4,1,5] 12
s[4,2,2] 0
s[4,2,4] 0
s[4,2,6] 8
s[5,0,0] 0
s[5,0,4] 0
s[5,0,6] 2.0000000000000007e+01
s[5,1,0] 1.7000000000000007e+01
s[5,1,3] 0
s[5,1,5] 0
s[5,2,0] 9.0000000000000036e+00
s[5,2,5] 0
s[5,2,6] 0
s[6,0,2] 0
s[6,0,3] 5.9999999999999920e+00
s[6,0,4] 0
s[6,1,1] 0
s[6,1,2] 0
s[6,1,5] 3.9999999999999925e+00
s[6,2,0] 0
s[6,2,1] 1.9999999999999920e+00
s[6,2,5] 0
Z_FO 120
